p edge 150 1409
v 1 648
v 2 617
v 3 320
v 4 366
v 5 606
v 6 468
v 7 652
v 8 504
v 9 213
v 10 417
v 11 465
v 12 396
v 13 365
v 14 644
v 15 227
v 16 565
v 17 314
v 18 479
v 19 426
v 20 526
v 21 470
v 22 235
v 23 468
v 24 385
v 25 441
v 26 355
v 27 539
v 28 256
v 29 544
v 30 411
v 31 535
v 32 324
v 33 293
v 34 212
v 35 415
v 36 552
v 37 575
v 38 332
v 39 350
v 40 565
v 41 359
v 42 338
v 43 350
v 44 670
v 45 247
v 46 613
v 47 515
v 48 227
v 49 233
v 50 509
v 51 258
v 52 321
v 53 589
v 54 605
v 55 224
v 56 377
v 57 229
v 58 593
v 59 242
v 60 478
v 61 545
v 62 552
v 63 253
v 64 508
v 65 230
v 66 250
v 67 278
v 68 214
v 69 207
v 70 332
v 71 453
v 72 319
v 73 502
v 74 600
v 75 601
v 76 365
v 77 556
v 78 360
v 79 663
v 80 334
v 81 475
v 82 378
v 83 314
v 84 386
v 85 289
v 86 538
v 87 325
v 88 629
v 89 385
v 90 445
v 91 392
v 92 478
v 93 558
v 94 551
v 95 313
v 96 608
v 97 386
v 98 598
v 99 674
v 100 258
v 101 510
v 102 580
v 103 544
v 104 539
v 105 662
v 106 589
v 107 461
v 108 275
v 109 694
v 110 299
v 111 384
v 112 539
v 113 265
v 114 390
v 115 213
v 116 378
v 117 408
v 118 205
v 119 672
v 120 642
v 121 593
v 122 470
v 123 504
v 124 269
v 125 531
v 126 382
v 127 241
v 128 676
v 129 439
v 130 573
v 131 366
v 132 265
v 133 549
v 134 371
v 135 367
v 136 430
v 137 248
v 138 429
v 139 501
v 140 430
v 141 255
v 142 226
v 143 318
v 144 429
v 145 603
v 146 647
v 147 610
v 148 636
v 149 563
v 150 233
e 1 2
e 1 3
e 1 4
e 1 5
e 1 6
e 1 7
e 1 8
e 1 9
e 1 10
e 1 11
e 1 44
e 1 74
e 1 87
e 1 106
e 1 116
e 1 125
e 1 138
e 2 3
e 2 4
e 2 5
e 2 6
e 2 7
e 2 8
e 2 9
e 2 10
e 2 13
e 2 26
e 2 34
e 2 47
e 2 65
e 2 77
e 2 89
e 2 99
e 2 108
e 2 118
e 2 141
e 3 4
e 3 5
e 3 6
e 3 7
e 3 8
e 3 9
e 3 10
e 3 14
e 3 20
e 3 35
e 3 48
e 3 66
e 3 78
e 3 100
e 3 109
e 3 119
e 3 128
e 3 142
e 4 5
e 4 6
e 4 7
e 4 8
e 4 9
e 4 10
e 4 15
e 4 27
e 4 36
e 4 57
e 4 67
e 4 79
e 4 90
e 4 110
e 4 129
e 5 6
e 5 7
e 5 8
e 5 9
e 5 10
e 5 37
e 5 58
e 5 68
e 5 80
e 5 92
e 5 101
e 5 121
e 5 131
e 5 143
e 6 7
e 6 8
e 6 9
e 6 10
e 6 21
e 6 29
e 6 38
e 6 59
e 6 69
e 6 81
e 6 93
e 6 132
e 6 144
e 7 8
e 7 9
e 7 10
e 7 16
e 7 39
e 7 60
e 7 70
e 7 82
e 7 94
e 7 102
e 7 122
e 7 133
e 7 145
e 8 9
e 8 10
e 8 17
e 8 30
e 8 40
e 8 50
e 8 61
e 8 83
e 8 95
e 8 112
e 8 134
e 8 146
e 9 10
e 9 23
e 9 31
e 9 42
e 9 53
e 9 73
e 9 85
e 9 97
e 9 104
e 9 149
e 10 24
e 10 43
e 10 54
e 10 63
e 10 86
e 10 98
e 10 105
e 10 115
e 10 137
e 10 150
e 11 12
e 11 13
e 11 14
e 11 15
e 11 16
e 11 17
e 11 18
e 11 44
e 11 74
e 11 87
e 11 106
e 11 116
e 11 125
e 11 138
e 12 13
e 12 14
e 12 15
e 12 16
e 12 17
e 12 18
e 12 19
e 12 33
e 12 46
e 12 56
e 12 76
e 12 117
e 12 127
e 12 140
e 13 14
e 13 15
e 13 16
e 13 17
e 13 18
e 13 26
e 13 34
e 13 47
e 13 65
e 13 77
e 13 89
e 13 99
e 13 108
e 13 118
e 13 141
e 14 15
e 14 16
e 14 17
e 14 18
e 14 20
e 14 35
e 14 48
e 14 66
e 14 78
e 14 100
e 14 109
e 14 119
e 14 128
e 14 142
e 15 16
e 15 17
e 15 18
e 15 27
e 15 36
e 15 57
e 15 67
e 15 79
e 15 90
e 15 110
e 15 129
e 16 17
e 16 18
e 16 39
e 16 60
e 16 70
e 16 82
e 16 94
e 16 102
e 16 122
e 16 133
e 16 145
e 17 18
e 17 30
e 17 40
e 17 50
e 17 61
e 17 83
e 17 95
e 17 112
e 17 134
e 17 146
e 18 22
e 18 52
e 18 62
e 18 72
e 18 84
e 18 96
e 18 103
e 18 114
e 18 124
e 18 136
e 18 148
e 19 20
e 19 21
e 19 22
e 19 23
e 19 24
e 19 33
e 19 46
e 19 56
e 19 76
e 19 117
e 19 127
e 19 140
e 20 21
e 20 22
e 20 23
e 20 24
e 20 35
e 20 48
e 20 66
e 20 78
e 20 100
e 20 109
e 20 119
e 20 128
e 20 142
e 21 22
e 21 23
e 21 24
e 21 29
e 21 38
e 21 59
e 21 69
e 21 81
e 21 93
e 21 132
e 21 144
e 22 23
e 22 24
e 22 52
e 22 62
e 22 72
e 22 84
e 22 96
e 22 103
e 22 114
e 22 124
e 22 136
e 22 148
e 23 24
e 23 31
e 23 42
e 23 53
e 23 73
e 23 85
e 23 97
e 23 104
e 23 149
e 24 43
e 24 54
e 24 63
e 24 86
e 24 98
e 24 105
e 24 115
e 24 137
e 24 150
e 25 26
e 25 27
e 25 28
e 25 29
e 25 30
e 25 31
e 25 32
e 25 45
e 25 55
e 25 64
e 25 75
e 25 88
e 25 107
e 25 126
e 25 139
e 26 27
e 26 28
e 26 29
e 26 30
e 26 31
e 26 34
e 26 47
e 26 65
e 26 77
e 26 89
e 26 99
e 26 108
e 26 118
e 26 141
e 27 28
e 27 29
e 27 30
e 27 31
e 27 36
e 27 57
e 27 67
e 27 79
e 27 90
e 27 110
e 27 129
e 28 29
e 28 30
e 28 31
e 28 49
e 28 91
e 28 111
e 28 120
e 28 130
e 29 30
e 29 31
e 29 38
e 29 59
e 29 69
e 29 81
e 29 93
e 29 132
e 29 144
e 30 31
e 30 40
e 30 50
e 30 61
e 30 83
e 30 95
e 30 112
e 30 134
e 30 146
e 31 42
e 31 53
e 31 73
e 31 85
e 31 97
e 31 104
e 31 149
e 32 33
e 32 34
e 32 35
e 32 36
e 32 37
e 32 38
e 32 39
e 32 40
e 32 41
e 32 42
e 32 43
e 32 45
e 32 55
e 32 64
e 32 75
e 32 88
e 32 107
e 32 126
e 32 139
e 33 34
e 33 35
e 33 36
e 33 37
e 33 38
e 33 39
e 33 40
e 33 41
e 33 42
e 33 43
e 33 46
e 33 56
e 33 76
e 33 117
e 33 127
e 33 140
e 34 35
e 34 36
e 34 37
e 34 38
e 34 39
e 34 40
e 34 41
e 34 42
e 34 43
e 34 47
e 34 65
e 34 77
e 34 89
e 34 99
e 34 108
e 34 118
e 34 141
e 35 36
e 35 37
e 35 38
e 35 39
e 35 40
e 35 41
e 35 42
e 35 43
e 35 48
e 35 66
e 35 78
e 35 100
e 35 109
e 35 119
e 35 128
e 35 142
e 36 37
e 36 38
e 36 39
e 36 40
e 36 41
e 36 42
e 36 43
e 36 57
e 36 67
e 36 79
e 36 90
e 36 110
e 36 129
e 37 38
e 37 39
e 37 40
e 37 41
e 37 42
e 37 43
e 37 58
e 37 68
e 37 80
e 37 92
e 37 101
e 37 121
e 37 131
e 37 143
e 38 39
e 38 40
e 38 41
e 38 42
e 38 43
e 38 59
e 38 69
e 38 81
e 38 93
e 38 132
e 38 144
e 39 40
e 39 41
e 39 42
e 39 43
e 39 60
e 39 70
e 39 82
e 39 94
e 39 102
e 39 122
e 39 133
e 39 145
e 40 41
e 40 42
e 40 43
e 40 50
e 40 61
e 40 83
e 40 95
e 40 112
e 40 134
e 40 146
e 41 42
e 41 43
e 41 51
e 41 71
e 41 113
e 41 123
e 41 135
e 41 147
e 42 43
e 42 53
e 42 73
e 42 85
e 42 97
e 42 104
e 42 149
e 43 54
e 43 63
e 43 86
e 43 98
e 43 105
e 43 115
e 43 137
e 43 150
e 44 45
e 44 46
e 44 47
e 44 48
e 44 49
e 44 50
e 44 51
e 44 52
e 44 53
e 44 54
e 44 74
e 44 87
e 44 106
e 44 116
e 44 125
e 44 138
e 45 46
e 45 47
e 45 48
e 45 49
e 45 50
e 45 51
e 45 52
e 45 53
e 45 54
e 45 55
e 45 64
e 45 75
e 45 88
e 45 107
e 45 126
e 45 139
e 46 47
e 46 48
e 46 49
e 46 50
e 46 51
e 46 52
e 46 53
e 46 54
e 46 56
e 46 76
e 46 117
e 46 127
e 46 140
e 47 48
e 47 49
e 47 50
e 47 51
e 47 52
e 47 53
e 47 54
e 47 65
e 47 77
e 47 89
e 47 99
e 47 108
e 47 118
e 47 141
e 48 49
e 48 50
e 48 51
e 48 52
e 48 53
e 48 54
e 48 66
e 48 78
e 48 100
e 48 109
e 48 119
e 48 128
e 48 142
e 49 50
e 49 51
e 49 52
e 49 53
e 49 54
e 49 91
e 49 111
e 49 120
e 49 130
e 50 51
e 50 52
e 50 53
e 50 54
e 50 61
e 50 83
e 50 95
e 50 112
e 50 134
e 50 146
e 51 52
e 51 53
e 51 54
e 51 71
e 51 113
e 51 123
e 51 135
e 51 147
e 52 53
e 52 54
e 52 62
e 52 72
e 52 84
e 52 96
e 52 103
e 52 114
e 52 124
e 52 136
e 52 148
e 53 54
e 53 73
e 53 85
e 53 97
e 53 104
e 53 149
e 54 63
e 54 86
e 54 98
e 54 105
e 54 115
e 54 137
e 54 150
e 55 56
e 55 57
e 55 58
e 55 59
e 55 60
e 55 61
e 55 62
e 55 63
e 55 64
e 55 75
e 55 88
e 55 107
e 55 126
e 55 139
e 56 57
e 56 58
e 56 59
e 56 60
e 56 61
e 56 62
e 56 63
e 56 76
e 56 117
e 56 127
e 56 140
e 57 58
e 57 59
e 57 60
e 57 61
e 57 62
e 57 63
e 57 67
e 57 79
e 57 90
e 57 110
e 57 129
e 58 59
e 58 60
e 58 61
e 58 62
e 58 63
e 58 68
e 58 80
e 58 92
e 58 101
e 58 121
e 58 131
e 58 143
e 59 60
e 59 61
e 59 62
e 59 63
e 59 69
e 59 81
e 59 93
e 59 132
e 59 144
e 60 61
e 60 62
e 60 63
e 60 70
e 60 82
e 60 94
e 60 102
e 60 122
e 60 133
e 60 145
e 61 62
e 61 63
e 61 83
e 61 95
e 61 112
e 61 134
e 61 146
e 62 63
e 62 72
e 62 84
e 62 96
e 62 103
e 62 114
e 62 124
e 62 136
e 62 148
e 63 86
e 63 98
e 63 105
e 63 115
e 63 137
e 63 150
e 64 65
e 64 66
e 64 67
e 64 68
e 64 69
e 64 70
e 64 71
e 64 72
e 64 73
e 64 75
e 64 88
e 64 107
e 64 126
e 64 139
e 65 66
e 65 67
e 65 68
e 65 69
e 65 70
e 65 71
e 65 72
e 65 73
e 65 77
e 65 89
e 65 99
e 65 108
e 65 118
e 65 141
e 66 67
e 66 68
e 66 69
e 66 70
e 66 71
e 66 72
e 66 73
e 66 78
e 66 100
e 66 109
e 66 119
e 66 128
e 66 142
e 67 68
e 67 69
e 67 70
e 67 71
e 67 72
e 67 73
e 67 79
e 67 90
e 67 110
e 67 129
e 68 69
e 68 70
e 68 71
e 68 72
e 68 73
e 68 80
e 68 92
e 68 101
e 68 121
e 68 131
e 68 143
e 69 70
e 69 71
e 69 72
e 69 73
e 69 81
e 69 93
e 69 132
e 69 144
e 70 71
e 70 72
e 70 73
e 70 82
e 70 94
e 70 102
e 70 122
e 70 133
e 70 145
e 71 72
e 71 73
e 71 113
e 71 123
e 71 135
e 71 147
e 72 73
e 72 84
e 72 96
e 72 103
e 72 114
e 72 124
e 72 136
e 72 148
e 73 85
e 73 97
e 73 104
e 73 149
e 74 75
e 74 76
e 74 77
e 74 78
e 74 79
e 74 80
e 74 81
e 74 82
e 74 83
e 74 84
e 74 85
e 74 86
e 74 87
e 74 106
e 74 116
e 74 125
e 74 138
e 75 76
e 75 77
e 75 78
e 75 79
e 75 80
e 75 81
e 75 82
e 75 83
e 75 84
e 75 85
e 75 86
e 75 88
e 75 107
e 75 126
e 75 139
e 76 77
e 76 78
e 76 79
e 76 80
e 76 81
e 76 82
e 76 83
e 76 84
e 76 85
e 76 86
e 76 117
e 76 127
e 76 140
e 77 78
e 77 79
e 77 80
e 77 81
e 77 82
e 77 83
e 77 84
e 77 85
e 77 86
e 77 89
e 77 99
e 77 108
e 77 118
e 77 141
e 78 79
e 78 80
e 78 81
e 78 82
e 78 83
e 78 84
e 78 85
e 78 86
e 78 100
e 78 109
e 78 119
e 78 128
e 78 142
e 79 80
e 79 81
e 79 82
e 79 83
e 79 84
e 79 85
e 79 86
e 79 90
e 79 110
e 79 129
e 80 81
e 80 82
e 80 83
e 80 84
e 80 85
e 80 86
e 80 92
e 80 101
e 80 121
e 80 131
e 80 143
e 81 82
e 81 83
e 81 84
e 81 85
e 81 86
e 81 93
e 81 132
e 81 144
e 82 83
e 82 84
e 82 85
e 82 86
e 82 94
e 82 102
e 82 122
e 82 133
e 82 145
e 83 84
e 83 85
e 83 86
e 83 95
e 83 112
e 83 134
e 83 146
e 84 85
e 84 86
e 84 96
e 84 103
e 84 114
e 84 124
e 84 136
e 84 148
e 85 86
e 85 97
e 85 104
e 85 149
e 86 98
e 86 105
e 86 115
e 86 137
e 86 150
e 87 88
e 87 89
e 87 90
e 87 91
e 87 92
e 87 93
e 87 94
e 87 95
e 87 96
e 87 97
e 87 98
e 87 106
e 87 116
e 87 125
e 87 138
e 88 89
e 88 90
e 88 91
e 88 92
e 88 93
e 88 94
e 88 95
e 88 96
e 88 97
e 88 98
e 88 107
e 88 126
e 88 139
e 89 90
e 89 91
e 89 92
e 89 93
e 89 94
e 89 95
e 89 96
e 89 97
e 89 98
e 89 99
e 89 108
e 89 118
e 89 141
e 90 91
e 90 92
e 90 93
e 90 94
e 90 95
e 90 96
e 90 97
e 90 98
e 90 110
e 90 129
e 91 92
e 91 93
e 91 94
e 91 95
e 91 96
e 91 97
e 91 98
e 91 111
e 91 120
e 91 130
e 92 93
e 92 94
e 92 95
e 92 96
e 92 97
e 92 98
e 92 101
e 92 121
e 92 131
e 92 143
e 93 94
e 93 95
e 93 96
e 93 97
e 93 98
e 93 132
e 93 144
e 94 95
e 94 96
e 94 97
e 94 98
e 94 102
e 94 122
e 94 133
e 94 145
e 95 96
e 95 97
e 95 98
e 95 112
e 95 134
e 95 146
e 96 97
e 96 98
e 96 103
e 96 114
e 96 124
e 96 136
e 96 148
e 97 98
e 97 104
e 97 149
e 98 105
e 98 115
e 98 137
e 98 150
e 99 100
e 99 101
e 99 102
e 99 103
e 99 104
e 99 105
e 99 108
e 99 118
e 99 141
e 100 101
e 100 102
e 100 103
e 100 104
e 100 105
e 100 109
e 100 119
e 100 128
e 100 142
e 101 102
e 101 103
e 101 104
e 101 105
e 101 121
e 101 131
e 101 143
e 102 103
e 102 104
e 102 105
e 102 122
e 102 133
e 102 145
e 103 104
e 103 105
e 103 114
e 103 124
e 103 136
e 103 148
e 104 105
e 104 149
e 105 115
e 105 137
e 105 150
e 106 107
e 106 108
e 106 109
e 106 110
e 106 111
e 106 112
e 106 113
e 106 114
e 106 115
e 106 116
e 106 125
e 106 138
e 107 108
e 107 109
e 107 110
e 107 111
e 107 112
e 107 113
e 107 114
e 107 115
e 107 126
e 107 139
e 108 109
e 108 110
e 108 111
e 108 112
e 108 113
e 108 114
e 108 115
e 108 118
e 108 141
e 109 110
e 109 111
e 109 112
e 109 113
e 109 114
e 109 115
e 109 119
e 109 128
e 109 142
e 110 111
e 110 112
e 110 113
e 110 114
e 110 115
e 110 129
e 111 112
e 111 113
e 111 114
e 111 115
e 111 120
e 111 130
e 112 113
e 112 114
e 112 115
e 112 134
e 112 146
e 113 114
e 113 115
e 113 123
e 113 135
e 113 147
e 114 115
e 114 124
e 114 136
e 114 148
e 115 137
e 115 150
e 116 117
e 116 118
e 116 119
e 116 120
e 116 121
e 116 122
e 116 123
e 116 124
e 116 125
e 116 138
e 117 118
e 117 119
e 117 120
e 117 121
e 117 122
e 117 123
e 117 124
e 117 127
e 117 140
e 118 119
e 118 120
e 118 121
e 118 122
e 118 123
e 118 124
e 118 141
e 119 120
e 119 121
e 119 122
e 119 123
e 119 124
e 119 128
e 119 142
e 120 121
e 120 122
e 120 123
e 120 124
e 120 130
e 121 122
e 121 123
e 121 124
e 121 131
e 121 143
e 122 123
e 122 124
e 122 133
e 122 145
e 123 124
e 123 135
e 123 147
e 124 136
e 124 148
e 125 126
e 125 127
e 125 128
e 125 129
e 125 130
e 125 131
e 125 132
e 125 133
e 125 134
e 125 135
e 125 136
e 125 137
e 125 138
e 126 127
e 126 128
e 126 129
e 126 130
e 126 131
e 126 132
e 126 133
e 126 134
e 126 135
e 126 136
e 126 137
e 126 139
e 127 128
e 127 129
e 127 130
e 127 131
e 127 132
e 127 133
e 127 134
e 127 135
e 127 136
e 127 137
e 127 140
e 128 129
e 128 130
e 128 131
e 128 132
e 128 133
e 128 134
e 128 135
e 128 136
e 128 137
e 128 142
e 129 130
e 129 131
e 129 132
e 129 133
e 129 134
e 129 135
e 129 136
e 129 137
e 130 131
e 130 132
e 130 133
e 130 134
e 130 135
e 130 136
e 130 137
e 131 132
e 131 133
e 131 134
e 131 135
e 131 136
e 131 137
e 131 143
e 132 133
e 132 134
e 132 135
e 132 136
e 132 137
e 132 144
e 133 134
e 133 135
e 133 136
e 133 137
e 133 145
e 134 135
e 134 136
e 134 137
e 134 146
e 135 136
e 135 137
e 135 147
e 136 137
e 136 148
e 137 150
e 138 139
e 138 140
e 138 141
e 138 142
e 138 143
e 138 144
e 138 145
e 138 146
e 138 147
e 138 148
e 138 149
e 138 150
e 139 140
e 139 141
e 139 142
e 139 143
e 139 144
e 139 145
e 139 146
e 139 147
e 139 148
e 139 149
e 139 150
e 140 141
e 140 142
e 140 143
e 140 144
e 140 145
e 140 146
e 140 147
e 140 148
e 140 149
e 140 150
e 141 142
e 141 143
e 141 144
e 141 145
e 141 146
e 141 147
e 141 148
e 141 149
e 141 150
e 142 143
e 142 144
e 142 145
e 142 146
e 142 147
e 142 148
e 142 149
e 142 150
e 143 144
e 143 145
e 143 146
e 143 147
e 143 148
e 143 149
e 143 150
e 144 145
e 144 146
e 144 147
e 144 148
e 144 149
e 144 150
e 145 146
e 145 147
e 145 148
e 145 149
e 145 150
e 146 147
e 146 148
e 146 149
e 146 150
e 147 148
e 147 149
e 147 150
e 148 149
e 148 150
e 149 150
